! b3lyp 6-31g
%pal nprocs 20 end
%maxcore 2950
* xyz 0 1
O 0.000000 0.000000 0.000000
H 0.000000 0.000000 0.957200
H 0.923900 0.000000 -0.239900
*