! b3lyp 6-31g opt nopop smallprint
%base
         "orca"
%pal
          nprocs 2
end
%maxcore
          3000
* xyz 0 1
O    0.00000    0.00000    0.00000
H    0.00000    0.00000    0.95720
H    0.92390    0.00000   -0.23990
*